problems/csplib-prob013/ProgressivePartyProblem-models/noch/O2/lingeling/model_1_1-Ian06-solution000001.solution
language Essence 1.3

letting hosts be {1, 2, 3, 8, 10}
letting sched be
        {function(1 --> 1, 2 --> 2, 3 --> 3, 4 --> 1, 5 --> 10, 6 --> 10, 7 --> 8, 8 --> 8, 9 --> 8, 10 --> 10),
         function(1 --> 1, 2 --> 2, 3 --> 3, 4 --> 2, 5 --> 1, 6 --> 2, 7 --> 3, 8 --> 8, 9 --> 10, 10 --> 10),
         function(1 --> 1, 2 --> 2, 3 --> 3, 4 --> 3, 5 --> 2, 6 --> 1, 7 --> 10, 8 --> 8, 9 --> 3, 10 --> 10),
         function(1 --> 1, 2 --> 2, 3 --> 3, 4 --> 8, 5 --> 8, 6 --> 3, 7 --> 2, 8 --> 8, 9 --> 1, 10 --> 10),
         function(1 --> 1, 2 --> 2, 3 --> 3, 4 --> 10, 5 --> 3, 6 --> 8, 7 --> 1, 8 --> 8, 9 --> 2, 10 --> 10)}
